NAME : tsp_278_sol.txt
COMMENT : OR-Tools Guided Local Search
TYPE : TOUR
DIMENSION : 50
COST : 5671
STATUS : ROUTING_SUCCESS
GAP : 0.00% (Reference Solution)
TOUR_SECTION
1
40
18
33
48
25
35
11
16
27
4
29
45
22
10
39
5
43
36
34
24
41
44
8
49
17
2
47
12
23
21
20
46
30
37
7
9
3
38
19
50
42
13
31
14
15
28
6
32
26
-1
